unsat
((set-logic NIA)
(declare-fun n!0 () Int)
(declare-fun k!2 () Int)
(declare-fun c!3 () Int)
(declare-fun m!1 () Int)
(proof
(let ((?x1771 (* k!2 n!0)))
 (let ((?x1517 (* (- 1) ?x1771)))
 (let ((?x2645 (* (- 2) n!0)))
 (let ((?x816 (* 3 c!3)))
 (let ((?x2056 (+ k!2 ?x816 ?x2645 ?x1517)))
 (let (($x1198 (<= ?x2056 1)))
 (let (($x2248 (= ?x2056 1)))
 (let ((?x2835 (* m!1 n!0)))
 (let ((?x2688 (* (- 6) (* k!2 k!2 k!2 m!1 m!1))))
 (let ((?x2668 (* (- 9) (* k!2 k!2 k!2 k!2 m!1))))
 (let ((?x1761 (* 2 (* k!2 k!2 m!1 n!0 n!0))))
 (let ((?x343 (* (- 15) (* c!3 c!3))))
 (let ((?x2834 (* 4 (* k!2 k!2 k!2 m!1 n!0))))
 (let ((?x2153 (* 2 (* k!2 k!2 k!2 k!2 n!0))))
 (let ((?x2069 (* n!0 n!0)))
 (let ((?x1496 (* 15 ?x2069)))
 (let ((?x2184 (* 11 (* k!2 k!2 n!0 n!0))))
 (let ((?x2009 (* 2 (* k!2 k!2 n!0))))
 (let ((?x1968 (* k!2 k!2)))
 (let ((?x1369 (* (- 9) ?x1968)))
 (let ((?x1901 (* 3 (* m!1 n!0 n!0))))
 (let ((?x1912 (* 3 (* m!1 n!0 n!0 n!0))))
 (let ((?x1372 (* 17 ?x1771)))
 (let ((?x1764 (* (- 1) (* k!2 k!2 m!1 m!1 m!1))))
 (let ((?x266 (* 2 (* k!2 k!2 m!1 m!1 n!0))))
 (let ((?x918 (* 11 n!0)))
 (let ((?x1747 (* 3 (* k!2 k!2 k!2 k!2))))
 (let ((?x1639 (* k!2 m!1 m!1)))
 (let ((?x444 (* 22 (* k!2 m!1 n!0))))
 (let ((?x953 (* 12 c!3)))
 (let ((?x1484 (* 12 k!2)))
 (let ((?x2665 (* (- 4) (* k!2 k!2 k!2 k!2 k!2))))
 (let ((?x1597 (* 9 (* n!0 n!0 n!0))))
 (let ((?x1462 (* k!2 n!0 n!0 n!0 n!0)))
 (let ((?x1458 (* (- 2) (* k!2 k!2 m!1))))
 (let ((?x1349 (* 13 (* k!2 m!1 n!0 n!0))))
 (let ((?x1325 (* m!1 n!0 n!0 n!0 n!0)))
 (let ((?x1461 (* (- 3) (* c!3 n!0 n!0 n!0))))
 (let ((?x1323 (* c!3 n!0 n!0)))
 (let ((?x423 (* 3 (* k!2 k!2 m!1 m!1))))
 (let ((?x1302 (* c!3 n!0)))
 (let ((?x1373 (* 16 ?x1302)))
 (let ((?x2174 (+ k!2 c!3)))
 (let ((?x339 (+ k!2 m!1)))
 (let ((?x1918 (+ 1 n!0)))
 (let ((?x852 (* (- 15) (* c!3 c!3 n!0))))
 (let ((?x630 (* 3 (* k!2 m!1 m!1 n!0))))
 (let ((?x560 (* 9 (* k!2 m!1))))
 (let ((?x2081 (* 2 (* n!0 n!0 n!0 n!0))))
 (let ((?x273 (* 2 (* k!2 m!1 m!1 n!0 n!0))))
 (let ((?x416 (* 6 (* k!2 k!2 k!2 m!1))))
 (let ((?x1913 (* 4 (* k!2 n!0 n!0))))
 (let ((?x2145 (+ ?x1913 (* (- 3) (* m!1 m!1 c!3 c!3 c!3)) ?x416 ?x273 ?x2081 ?x560 (* ?x1918 ?x1918 ?x1918 (+ 6 m!1) ?x339 ?x339 ?x2174) (* 2 (* ?x1918 ?x1918 ?x1918 (+ 6 m!1) ?x339 ?x2174)) ?x630 (* (- 2) (* k!2 m!1 m!1 m!1 c!3)) ?x852 (* 8 (* k!2 k!2 m!1 c!3 n!0)) (* 2 (* m!1 m!1 c!3 c!3 n!0)) (* (- 3) (* m!1 c!3 c!3 n!0)) (* (- 3) (* k!2 k!2 c!3 c!3 c!3)) (* 2 (* k!2 m!1 c!3 n!0 n!0)) (* 12 (* k!2 k!2 m!1 c!3)) (* (- 15) (* k!2 k!2 m!1 m!1 c!3)) (* (- 21) (* k!2 k!2 m!1 c!3 c!3)) (* (- 3) (* ?x1918 ?x1918 (+ 6 m!1) ?x339 ?x2174 ?x2174)) (* (- 12) (* k!2 m!1 m!1 c!3 c!3)) (* (- 10) (* k!2 k!2 k!2 c!3 c!3)) (* (- 1) (* ?x1918 ?x1918 (+ 6 m!1) ?x339 ?x339 ?x2174)) (* 6 (* k!2 m!1 c!3 c!3)) (* 11 (* k!2 c!3 n!0 n!0)) (* ?x1918 ?x339 ?x339 ?x339 ?x2174 ?x2174) (* (- 24) (* k!2 k!2 k!2 m!1 c!3)) (* (- 11) (* k!2 k!2 k!2 k!2 c!3)) (* 6 (* k!2 m!1 m!1 c!3)) (* 3 (* m!1 m!1 c!3 c!3)) ?x1373 ?x423 ?x1323 ?x1461 ?x1325 (* 2 (* m!1 m!1 c!3 n!0 n!0)) (* (- 1) (* m!1 m!1 m!1 c!3 c!3)) (* 6 (* k!2 k!2 k!2 c!3)) ?x1349 ?x1458 ?x1462 ?x1597 ?x2665 ?x1484 ?x953 (* 3 (* m!1 m!1 c!3 n!0)) (* 3 (* k!2 k!2 c!3 c!3)) ?x444 ?x1639 (* 4 (* k!2 m!1 c!3 c!3 n!0)) ?x1747 ?x918 ?x266 ?x1764 ?x1372 (* 13 (* m!1 c!3 n!0 n!0)) ?x1912 ?x1901 ?x1369 (* (- 6) (* k!2 m!1 c!3 c!3 c!3)) ?x2009 ?x2184 ?x1496 (* (- 3) (* k!2 m!1 c!3 n!0)) ?x2153 ?x2834 ?x343 (* 22 (* m!1 c!3 n!0)) (* 4 (* k!2 m!1 m!1 c!3 n!0)) (* 9 (* m!1 c!3)) (* 2 (* k!2 k!2 c!3 c!3 n!0)) (* 4 (* k!2 k!2 k!2 c!3 n!0)) ?x1761 ?x2668 ?x2688 (* m!1 m!1 c!3) ?x2835 (* (- 24) (* k!2 c!3)) (* (- 3) (* m!1 c!3 c!3)) (* (- 5) (* k!2 m!1 c!3)) (* (- 13) (* k!2 c!3 n!0)))))
 (let (($x1467 (= ?x2145 (- 3))))
 (let (($x2250 (not $x1467)))
 (let ((?x951 (+ k!2 (* (- 3) n!0) (* (- 3) ?x2069))))
 (let (($x955 (= ?x951 1)))
 (let ((?x2134 (* (- 1) ?x1968)))
 (let ((?x2107 (* (- 9) n!0)))
 (let ((?x1537 (* 18 c!3)))
 (let ((?x2132 (* 5 k!2)))
 (let ((?x884 (* 9 ?x1302)))
 (let ((?x2001 (+ ?x884 ?x2132 ?x1537 ?x2107 ?x2134)))
 (let (($x2292 (= ?x2001 4)))
 (let ((?x1543 (+ m!1 (* (- 6) n!0))))
 (let (($x1539 (= ?x1543 6)))
 (let (($x1569 (and $x1539 $x2292 $x2248 $x955 $x2250)))
 (let ((?x1229 (* (- 3) (* ?x1918 ?x1918 (+ 6 m!1) ?x339 (+ c!3 k!2) (+ c!3 k!2)))))
 (let ((?x2193 (+ ?x953 ?x1484 ?x918 ?x1369 ?x1372 ?x1373 ?x1496 ?x1597 (* 22 (* c!3 m!1 n!0)) ?x444 (* 9 (* c!3 m!1)) ?x560 ?x2081 (* 2 (* c!3 c!3 k!2 k!2 n!0)) (* 4 (* c!3 k!2 k!2 k!2 n!0)) ?x2153 (* 4 (* c!3 c!3 k!2 m!1 n!0)) (* 8 (* c!3 k!2 k!2 m!1 n!0)) ?x2834 (* 2 (* c!3 c!3 m!1 m!1 n!0)) (* 4 (* c!3 k!2 m!1 m!1 n!0)) ?x266 (* (- 3) (* c!3 c!3 m!1 n!0)) (* (- 3) (* c!3 k!2 m!1 n!0)) ?x343 (* (- 24) (* c!3 k!2)) (* (- 3) (* c!3 c!3 m!1)) (* (- 5) (* c!3 k!2 m!1)) ?x1458 ?x852 (* (- 13) (* c!3 k!2 n!0)) ?x2009 ?x1639 (* c!3 m!1 m!1) ?x630 (* 3 (* c!3 m!1 m!1 n!0)) ?x1912 ?x2835 ?x1913 ?x1901 (* (- 1) (* ?x1918 ?x1918 (+ 6 m!1) ?x339 ?x339 (+ c!3 k!2))) ?x1462 ?x1325 ?x1461 ?x1323 (* 6 (* c!3 c!3 k!2 m!1)) (* 12 (* c!3 k!2 k!2 m!1)) ?x416 (* 3 (* c!3 c!3 m!1 m!1)) (* 6 (* c!3 k!2 m!1 m!1)) ?x423 (* 2 (* c!3 k!2 m!1 n!0 n!0)) ?x1761 (* (- 3) (* c!3 c!3 c!3 k!2 k!2)) (* (- 10) (* c!3 c!3 k!2 k!2 k!2)) (* (- 11) (* c!3 k!2 k!2 k!2 k!2)) ?x2665 (* (- 6) (* c!3 c!3 c!3 k!2 m!1)) (* (- 21) (* c!3 c!3 k!2 k!2 m!1)) (* (- 24) (* c!3 k!2 k!2 k!2 m!1)) ?x2668 (* (- 3) (* c!3 c!3 c!3 m!1 m!1)) (* (- 12) (* c!3 c!3 k!2 m!1 m!1)) (* (- 15) (* c!3 k!2 k!2 m!1 m!1)) ?x2688 (* ?x1918 ?x339 ?x339 ?x339 (+ c!3 k!2) (+ c!3 k!2)) ?x1229 (* 2 (* c!3 m!1 m!1 n!0 n!0)) ?x273 ?x1747 (* 6 (* c!3 k!2 k!2 k!2)) (* 3 (* c!3 c!3 k!2 k!2)) (* (- 1) (* c!3 c!3 m!1 m!1 m!1)) (* (- 2) (* c!3 k!2 m!1 m!1 m!1)) ?x1764 (* 13 (* c!3 m!1 n!0 n!0)) ?x1349 (* 11 (* c!3 k!2 n!0 n!0)) ?x2184 (* ?x1918 ?x1918 ?x1918 (+ 6 m!1) ?x339 ?x339 (+ c!3 k!2)) (* 2 (* ?x1918 ?x1918 ?x1918 (+ 6 m!1) ?x339 (+ c!3 k!2))))))
 (let (($x2192 (and $x1539 (= (+ ?x1537 ?x2132 ?x2107 ?x2134 ?x884) 4) (= (+ ?x816 k!2 ?x2645 ?x1517) 1) $x955 (not (= ?x2193 (- 3))))))
 (let (($x524 (exists ((c Int) (k Int) (m Int) (n Int) )(! (let ((?x70 (+ c k)))
 (let ((?x74 (+ k m)))
 (let ((?x373 (+ 6 m)))
 (let ((?x333 (+ 1 n)))
 (let ((?x2864 (* 2 (* ?x333 ?x333 ?x333 ?x373 ?x74 ?x70))))
 (let ((?x2853 (* ?x333 ?x333 ?x333 ?x373 ?x74 ?x74 ?x70)))
 (let ((?x2709 (* (- 1) (* k k m m m))))
 (let ((?x2722 (* (- 2) (* c k m m m))))
 (let ((?x2707 (* (- 1) (* c c m m m))))
 (let ((?x2534 (* 2 (* k m m n n))))
 (let ((?x2532 (* 2 (* c m m n n))))
 (let ((?x2263 (* (- 3) (* ?x333 ?x333 ?x373 ?x74 ?x70 ?x70))))
 (let ((?x2040 (* ?x333 ?x74 ?x74 ?x74 ?x70 ?x70)))
 (let ((?x2733 (* (- 6) (* k k k m m))))
 (let ((?x2732 (* (- 15) (* c k k m m))))
 (let ((?x2731 (* (- 12) (* c c k m m))))
 (let ((?x2227 (* (- 3) (* c c c m m))))
 (let ((?x2730 (* (- 9) (* k k k k m))))
 (let ((?x2729 (* (- 24) (* c k k k m))))
 (let ((?x2727 (* (- 21) (* c c k k m))))
 (let ((?x2280 (* (- 6) (* c c c k m))))
 (let ((?x2715 (* (- 4) (* k k k k k))))
 (let ((?x2714 (* (- 11) (* c k k k k))))
 (let ((?x2718 (* (- 10) (* c c k k k))))
 (let ((?x2059 (* (- 3) (* c c c k k))))
 (let ((?x1273 (* c n n)))
 (let ((?x1283 (* (- 3) (* c n n n))))
 (let ((?x1092 (* m n n n n)))
 (let ((?x1091 (* k n n n n)))
 (let ((?x1636 (* (- 1) (* ?x333 ?x333 ?x373 ?x74 ?x74 ?x70))))
 (let ((?x960 (* 3 (* m n n))))
 (let ((?x929 (* m n)))
 (let ((?x1178 (* 3 (* m n n n))))
 (let ((?x742 (* c m m)))
 (let ((?x739 (* k m m)))
 (let ((?x2549 (* (- 15) (* c c n))))
 (let ((?x508 (* 2 (* k k k k n))))
 (let ((?x502 (* 2 (* c c k k n))))
 (let ((?x446 (* 2 (* n n n n))))
 (let ((?x1127 (+ (* 12 c) (* 12 k) (* 11 n) (* (- 9) (* k k)) (* 17 (* k n)) (* 16 (* c n)) (* 15 (* n n)) (* 9 (* n n n)) (* 22 (* c m n)) (* 22 (* k m n)) (* 9 (* c m)) (* 9 (* k m)) ?x446 ?x502 (* 4 (* c k k k n)) ?x508 (* 4 (* c c k m n)) (* 8 (* c k k m n)) (* 4 (* k k k m n)) (* 2 (* c c m m n)) (* 4 (* c k m m n)) (* 2 (* k k m m n)) (* (- 3) (* c c m n)) (* (- 3) (* c k m n)) (* (- 15) (* c c)) (* (- 24) (* c k)) (* (- 3) (* c c m)) (* (- 5) (* c k m)) (* (- 2) (* k k m)) ?x2549 (* (- 13) (* c k n)) (* 2 (* k k n)) ?x739 ?x742 (* 3 (* k m m n)) (* 3 (* c m m n)) ?x1178 ?x929 (* 4 (* k n n)) ?x960 ?x1636 ?x1091 ?x1092 ?x1283 ?x1273 (* 6 (* c c k m)) (* 12 (* c k k m)) (* 6 (* k k k m)) (* 3 (* c c m m)) (* 6 (* c k m m)) (* 3 (* k k m m)) (* 2 (* c k m n n)) (* 2 (* k k m n n)) ?x2059 ?x2718 ?x2714 ?x2715 ?x2280 ?x2727 ?x2729 ?x2730 ?x2227 ?x2731 ?x2732 ?x2733 ?x2040 ?x2263 ?x2532 ?x2534 (* 3 (* k k k k)) (* 6 (* c k k k)) (* 3 (* c c k k)) ?x2707 ?x2722 ?x2709 (* 13 (* c m n n)) (* 13 (* k m n n)) (* 11 (* c k n n)) (* 11 (* k k n n)) ?x2853 ?x2864)))
 (let (($x325 (= (+ k (* (- 3) n) (* (- 3) (* n n))) 1)))
 (let (($x287 (= (+ (* 3 c) k (* (- 2) n) (* (- 1) (* k n))) 1)))
 (let ((?x49 (* k k)))
 (let ((?x238 (* (- 1) ?x49)))
 (let ((?x237 (* (- 9) n)))
 (let ((?x44 (* 5 k)))
 (let ((?x40 (* 18 c)))
 (let (($x235 (= (+ ?x40 ?x44 ?x237 ?x238 (* 9 (* c n))) 4)))
 (let (($x151 (= (+ m (* (- 6) n)) 6)))
 (and $x151 $x235 $x287 $x325 (not (= ?x1127 (- 3))))))))))))))))))))))))))))))))))))))))))))))))))))) :qid k!34))
 ))
 (let (($x1000 (exists ((c Int) (k Int) (m Int) (n Int) )(! (let ((?x930 (* (- 1) (* (+ 1 n) (+ 1 n) (+ k m) (+ c k)))))
 (let ((?x985 (* 2 (* (+ 1 n) (+ 1 n) (+ 6 m) (+ c k)))))
 (let ((?x70 (+ c k)))
 (let ((?x74 (+ k m)))
 (let ((?x1636 (* (- 1) (* (+ 1 n) (+ 1 n) (+ 6 m) ?x74 ?x74 ?x70))))
 (let ((?x2880 (* 2 (* (+ 1 n) (+ 1 n) (+ 6 m) ?x74 ?x70))))
 (let ((?x373 (+ 6 m)))
 (let ((?x333 (+ 1 n)))
 (let ((?x2864 (* 2 (* ?x333 ?x333 ?x333 ?x373 ?x74 ?x70))))
 (let ((?x2853 (* ?x333 ?x333 ?x333 ?x373 ?x74 ?x74 ?x70)))
 (let ((?x2263 (* (- 3) (* ?x333 ?x333 ?x373 ?x74 ?x70 ?x70))))
 (let ((?x2040 (* ?x333 ?x74 ?x74 ?x74 ?x70 ?x70)))
 (let ((?x934 (+ (* ?x333 ?x333 ?x333) (* ?x333 ?x373 ?x70) (* 2 (* ?x333 ?x333 ?x333 ?x333)) (* 2 (* ?x333 ?x74 ?x74 ?x70 ?x70)) (* (- 3) (* ?x333 ?x373 ?x70 ?x70)) ?x2040 (* (- 1) (* ?x333 ?x373 ?x74 ?x70)) (* ?x333 ?x74 ?x70) (* (- 1) (* ?x333 ?x333 ?x333 ?x74)) (* (- 1) (* ?x333 ?x70)) (* ?x333 ?x333 ?x333 ?x333 ?x74) (* (- 3) (* ?x333 ?x333 ?x333 ?x70)) ?x2263 (* (- 2) (* ?x333 ?x333 ?x70)) (* (- 3) (* ?x74 ?x74 ?x70 ?x70 ?x70)) ?x2853 ?x2864 (* 3 (* ?x333 ?x70 ?x70)) ?x2880 ?x1636 (* ?x74 ?x74 ?x70 ?x70) (* (- 1) (* ?x74 ?x74 ?x74 ?x70 ?x70)) ?x985 ?x930)))
 (let (($x2028 (not (= ?x934 0))))
 (let (($x2704 (= (+ (* 3 (* n n)) (* (- 1) k) (* 3 n)) (- 1))))
 (let (($x886 (= (+ (* 3 c) (* (- 1) (* n k)) k (* (- 2) n)) 1)))
 (let ((?x49 (* k k)))
 (let ((?x238 (* (- 1) ?x49)))
 (let ((?x237 (* (- 9) n)))
 (let ((?x44 (* 5 k)))
 (let ((?x40 (* 18 c)))
 (let (($x151 (= (+ m (* (- 6) n)) 6)))
 (and $x151 (= (+ ?x40 (* 9 (* n c)) ?x44 ?x237 ?x238) 4) $x886 $x2704 $x2028))))))))))))))))))))))) :qid k!34))
 ))
 (let ((?x991 (lambda ((c Int) (k Int) (m Int) (n Int) )(let ((?x70 (+ c k)))
 (let ((?x74 (+ k m)))
 (let ((?x373 (+ 6 m)))
 (let ((?x333 (+ 1 n)))
 (let ((?x2864 (* 2 (* ?x333 ?x333 ?x333 ?x373 ?x74 ?x70))))
 (let ((?x2853 (* ?x333 ?x333 ?x333 ?x373 ?x74 ?x74 ?x70)))
 (let ((?x2709 (* (- 1) (* k k m m m))))
 (let ((?x2722 (* (- 2) (* c k m m m))))
 (let ((?x2707 (* (- 1) (* c c m m m))))
 (let ((?x2534 (* 2 (* k m m n n))))
 (let ((?x2532 (* 2 (* c m m n n))))
 (let ((?x2263 (* (- 3) (* ?x333 ?x333 ?x373 ?x74 ?x70 ?x70))))
 (let ((?x2040 (* ?x333 ?x74 ?x74 ?x74 ?x70 ?x70)))
 (let ((?x2733 (* (- 6) (* k k k m m))))
 (let ((?x2732 (* (- 15) (* c k k m m))))
 (let ((?x2731 (* (- 12) (* c c k m m))))
 (let ((?x2227 (* (- 3) (* c c c m m))))
 (let ((?x2730 (* (- 9) (* k k k k m))))
 (let ((?x2729 (* (- 24) (* c k k k m))))
 (let ((?x2727 (* (- 21) (* c c k k m))))
 (let ((?x2280 (* (- 6) (* c c c k m))))
 (let ((?x2715 (* (- 4) (* k k k k k))))
 (let ((?x2714 (* (- 11) (* c k k k k))))
 (let ((?x2718 (* (- 10) (* c c k k k))))
 (let ((?x2059 (* (- 3) (* c c c k k))))
 (let ((?x1273 (* c n n)))
 (let ((?x1283 (* (- 3) (* c n n n))))
 (let ((?x1092 (* m n n n n)))
 (let ((?x1091 (* k n n n n)))
 (let ((?x1636 (* (- 1) (* ?x333 ?x333 ?x373 ?x74 ?x74 ?x70))))
 (let ((?x960 (* 3 (* m n n))))
 (let ((?x929 (* m n)))
 (let ((?x1178 (* 3 (* m n n n))))
 (let ((?x742 (* c m m)))
 (let ((?x739 (* k m m)))
 (let ((?x2549 (* (- 15) (* c c n))))
 (let ((?x508 (* 2 (* k k k k n))))
 (let ((?x502 (* 2 (* c c k k n))))
 (let ((?x446 (* 2 (* n n n n))))
 (let ((?x1127 (+ (* 12 c) (* 12 k) (* 11 n) (* (- 9) (* k k)) (* 17 (* k n)) (* 16 (* c n)) (* 15 (* n n)) (* 9 (* n n n)) (* 22 (* c m n)) (* 22 (* k m n)) (* 9 (* c m)) (* 9 (* k m)) ?x446 ?x502 (* 4 (* c k k k n)) ?x508 (* 4 (* c c k m n)) (* 8 (* c k k m n)) (* 4 (* k k k m n)) (* 2 (* c c m m n)) (* 4 (* c k m m n)) (* 2 (* k k m m n)) (* (- 3) (* c c m n)) (* (- 3) (* c k m n)) (* (- 15) (* c c)) (* (- 24) (* c k)) (* (- 3) (* c c m)) (* (- 5) (* c k m)) (* (- 2) (* k k m)) ?x2549 (* (- 13) (* c k n)) (* 2 (* k k n)) ?x739 ?x742 (* 3 (* k m m n)) (* 3 (* c m m n)) ?x1178 ?x929 (* 4 (* k n n)) ?x960 ?x1636 ?x1091 ?x1092 ?x1283 ?x1273 (* 6 (* c c k m)) (* 12 (* c k k m)) (* 6 (* k k k m)) (* 3 (* c c m m)) (* 6 (* c k m m)) (* 3 (* k k m m)) (* 2 (* c k m n n)) (* 2 (* k k m n n)) ?x2059 ?x2718 ?x2714 ?x2715 ?x2280 ?x2727 ?x2729 ?x2730 ?x2227 ?x2731 ?x2732 ?x2733 ?x2040 ?x2263 ?x2532 ?x2534 (* 3 (* k k k k)) (* 6 (* c k k k)) (* 3 (* c c k k)) ?x2707 ?x2722 ?x2709 (* 13 (* c m n n)) (* 13 (* k m n n)) (* 11 (* c k n n)) (* 11 (* k k n n)) ?x2853 ?x2864)))
 (let (($x325 (= (+ k (* (- 3) n) (* (- 3) (* n n))) 1)))
 (let (($x287 (= (+ (* 3 c) k (* (- 2) n) (* (- 1) (* k n))) 1)))
 (let ((?x49 (* k k)))
 (let ((?x238 (* (- 1) ?x49)))
 (let ((?x237 (* (- 9) n)))
 (let ((?x44 (* 5 k)))
 (let ((?x40 (* 18 c)))
 (let (($x235 (= (+ ?x40 ?x44 ?x237 ?x238 (* 9 (* c n))) 4)))
 (let (($x151 (= (+ m (* (- 6) n)) 6)))
 (let (($x2027 (and $x151 $x235 $x287 $x325 (not (= ?x1127 (- 3))))))
 (let ((?x934 (+ (* ?x333 ?x333 ?x333) (* ?x333 ?x373 ?x70) (* 2 (* ?x333 ?x333 ?x333 ?x333)) (* 2 (* ?x333 ?x74 ?x74 ?x70 ?x70)) (* (- 3) (* ?x333 ?x373 ?x70 ?x70)) ?x2040 (* (- 1) (* ?x333 ?x373 ?x74 ?x70)) (* ?x333 ?x74 ?x70) (* (- 1) (* ?x333 ?x333 ?x333 ?x74)) (* (- 1) (* ?x333 ?x70)) (* ?x333 ?x333 ?x333 ?x333 ?x74) (* (- 3) (* ?x333 ?x333 ?x333 ?x70)) ?x2263 (* (- 2) (* ?x333 ?x333 ?x70)) (* (- 3) (* ?x74 ?x74 ?x70 ?x70 ?x70)) ?x2853 ?x2864 (* 3 (* ?x333 ?x70 ?x70)) (* 2 (* ?x333 ?x333 ?x373 ?x74 ?x70)) ?x1636 (* ?x74 ?x74 ?x70 ?x70) (* (- 1) (* ?x74 ?x74 ?x74 ?x70 ?x70)) (* 2 (* ?x333 ?x333 ?x373 ?x70)) (* (- 1) (* ?x333 ?x333 ?x74 ?x70)))))
 (let (($x2028 (not (= ?x934 0))))
 (let (($x2704 (= (+ (* 3 (* n n)) (* (- 1) k) (* 3 n)) (- 1))))
 (let (($x886 (= (+ (* 3 c) (* (- 1) (* n k)) k (* (- 2) n)) 1)))
 (let (($x983 (and $x151 (= (+ ?x40 (* 9 (* n c)) ?x44 ?x237 ?x238) 4) $x886 $x2704 $x2028)))
 (rewrite (= $x983 $x2027))))))))))))))))))))))))))))))))))))))))))))))))))))))))))
 ))
 (let (($x2030 (exists ((c Int) (k Int) (m Int) (n Int) )(! (let ((?x930 (* (- 1) (* (+ 1 n) (+ 1 n) (+ k m) (+ c k)))))
 (let ((?x985 (* 2 (* (+ 1 n) (+ 1 n) (+ 6 m) (+ c k)))))
 (let ((?x70 (+ c k)))
 (let ((?x74 (+ k m)))
 (let ((?x1636 (* (- 1) (* (+ 1 n) (+ 1 n) (+ 6 m) ?x74 ?x74 ?x70))))
 (let ((?x2880 (* 2 (* (+ 1 n) (+ 1 n) (+ 6 m) ?x74 ?x70))))
 (let ((?x373 (+ 6 m)))
 (let ((?x333 (+ 1 n)))
 (let ((?x2864 (* 2 (* ?x333 ?x333 ?x333 ?x373 ?x74 ?x70))))
 (let ((?x2853 (* ?x333 ?x333 ?x333 ?x373 ?x74 ?x74 ?x70)))
 (let ((?x2263 (* (- 3) (* ?x333 ?x333 ?x373 ?x74 ?x70 ?x70))))
 (let ((?x2040 (* ?x333 ?x74 ?x74 ?x74 ?x70 ?x70)))
 (let ((?x934 (+ (* ?x333 ?x333 ?x333) (* ?x333 ?x373 ?x70) (* 2 (* ?x333 ?x333 ?x333 ?x333)) (* 2 (* ?x333 ?x74 ?x74 ?x70 ?x70)) (* (- 3) (* ?x333 ?x373 ?x70 ?x70)) ?x2040 (* (- 1) (* ?x333 ?x373 ?x74 ?x70)) (* ?x333 ?x74 ?x70) (* (- 1) (* ?x333 ?x333 ?x333 ?x74)) (* (- 1) (* ?x333 ?x70)) (* ?x333 ?x333 ?x333 ?x333 ?x74) (* (- 3) (* ?x333 ?x333 ?x333 ?x70)) ?x2263 (* (- 2) (* ?x333 ?x333 ?x70)) (* (- 3) (* ?x74 ?x74 ?x70 ?x70 ?x70)) ?x2853 ?x2864 (* 3 (* ?x333 ?x70 ?x70)) ?x2880 ?x1636 (* ?x74 ?x74 ?x70 ?x70) (* (- 1) (* ?x74 ?x74 ?x74 ?x70 ?x70)) ?x985 ?x930)))
 (let (($x2028 (not (= ?x934 0))))
 (let (($x2704 (= (+ (* 3 (* n n)) (* (- 1) k) (* 3 n)) (- 1))))
 (let (($x2552 (= (+ (* (- 3) c) (* n k) (* (- 1) k) (* 2 n)) (- 1))))
 (let ((?x49 (* k k)))
 (let ((?x48 (* 9 n)))
 (let ((?x141 (+ (* (- 18) c) (* (- 9) (* n c)) (* (- 5) k) ?x48 ?x49)))
 (let (($x151 (= (+ m (* (- 6) n)) 6)))
 (and $x151 (= ?x141 (- 4)) $x2552 $x2704 $x2028))))))))))))))))))))) :qid k!34))
 ))
 (let ((?x1002 (lambda ((c Int) (k Int) (m Int) (n Int) )(let ((?x930 (* (- 1) (* (+ 1 n) (+ 1 n) (+ k m) (+ c k)))))
 (let ((?x985 (* 2 (* (+ 1 n) (+ 1 n) (+ 6 m) (+ c k)))))
 (let ((?x70 (+ c k)))
 (let ((?x74 (+ k m)))
 (let ((?x1636 (* (- 1) (* (+ 1 n) (+ 1 n) (+ 6 m) ?x74 ?x74 ?x70))))
 (let ((?x2880 (* 2 (* (+ 1 n) (+ 1 n) (+ 6 m) ?x74 ?x70))))
 (let ((?x373 (+ 6 m)))
 (let ((?x333 (+ 1 n)))
 (let ((?x2864 (* 2 (* ?x333 ?x333 ?x333 ?x373 ?x74 ?x70))))
 (let ((?x2853 (* ?x333 ?x333 ?x333 ?x373 ?x74 ?x74 ?x70)))
 (let ((?x2263 (* (- 3) (* ?x333 ?x333 ?x373 ?x74 ?x70 ?x70))))
 (let ((?x2040 (* ?x333 ?x74 ?x74 ?x74 ?x70 ?x70)))
 (let ((?x934 (+ (* ?x333 ?x333 ?x333) (* ?x333 ?x373 ?x70) (* 2 (* ?x333 ?x333 ?x333 ?x333)) (* 2 (* ?x333 ?x74 ?x74 ?x70 ?x70)) (* (- 3) (* ?x333 ?x373 ?x70 ?x70)) ?x2040 (* (- 1) (* ?x333 ?x373 ?x74 ?x70)) (* ?x333 ?x74 ?x70) (* (- 1) (* ?x333 ?x333 ?x333 ?x74)) (* (- 1) (* ?x333 ?x70)) (* ?x333 ?x333 ?x333 ?x333 ?x74) (* (- 3) (* ?x333 ?x333 ?x333 ?x70)) ?x2263 (* (- 2) (* ?x333 ?x333 ?x70)) (* (- 3) (* ?x74 ?x74 ?x70 ?x70 ?x70)) ?x2853 ?x2864 (* 3 (* ?x333 ?x70 ?x70)) ?x2880 ?x1636 (* ?x74 ?x74 ?x70 ?x70) (* (- 1) (* ?x74 ?x74 ?x74 ?x70 ?x70)) ?x985 ?x930)))
 (let (($x2028 (not (= ?x934 0))))
 (let (($x2704 (= (+ (* 3 (* n n)) (* (- 1) k) (* 3 n)) (- 1))))
 (let (($x886 (= (+ (* 3 c) (* (- 1) (* n k)) k (* (- 2) n)) 1)))
 (let ((?x49 (* k k)))
 (let ((?x238 (* (- 1) ?x49)))
 (let ((?x237 (* (- 9) n)))
 (let ((?x44 (* 5 k)))
 (let ((?x40 (* 18 c)))
 (let (($x151 (= (+ m (* (- 6) n)) 6)))
 (let (($x983 (and $x151 (= (+ ?x40 (* 9 (* n c)) ?x44 ?x237 ?x238) 4) $x886 $x2704 $x2028)))
 (let (($x2552 (= (+ (* (- 3) c) (* n k) (* (- 1) k) (* 2 n)) (- 1))))
 (let ((?x48 (* 9 n)))
 (let ((?x141 (+ (* (- 18) c) (* (- 9) (* n c)) (* (- 5) k) ?x48 ?x49)))
 (let (($x2826 (and $x151 (= ?x141 (- 4)) $x2552 $x2704 $x2028)))
 (rewrite (= $x2826 $x983))))))))))))))))))))))))))))))
 ))
 (let (($x118 (exists ((c Int) (k Int) (m Int) (n Int) )(! (let ((?x68 (+ n 1)))
 (let ((?x71 (+ m 6)))
 (let ((?x70 (+ c k)))
 (let ((?x76 (+ (* ?x68 ?x68 ?x68) (* ?x70 ?x71 ?x68) (* 2 ?x68 ?x68 ?x68 ?x68) (* 2 ?x70 ?x70 (+ k m) (+ k m) ?x68))))
 (let ((?x80 (+ (- ?x76 (* 3 ?x70 ?x70 ?x71 ?x68)) (* ?x70 ?x70 (+ k m) (+ k m) (+ k m) ?x68))))
 (let ((?x84 (+ (- ?x80 (* ?x70 (+ k m) ?x71 ?x68)) (* ?x70 (+ k m) ?x68))))
 (let ((?x90 (+ (- (- ?x84 (* (+ k m) ?x68 ?x68 ?x68)) (* ?x70 ?x68)) (* (+ k m) ?x68 ?x68 ?x68 ?x68))))
 (let ((?x96 (- (- ?x90 (* 3 ?x70 ?x68 ?x68 ?x68)) (* 3 ?x70 ?x70 (+ k m) ?x71 ?x68 ?x68))))
 (let ((?x98 (- (- ?x96 (* 2 ?x70 ?x68 ?x68)) (* 3 ?x70 ?x70 ?x70 (+ k m) (+ k m)))))
 (let ((?x103 (+ ?x98 (* ?x70 (+ k m) (+ k m) ?x71 ?x68 ?x68 ?x68) (* 2 ?x70 (+ k m) ?x71 ?x68 ?x68 ?x68) (* 3 ?x70 ?x70 ?x68) (* 2 ?x70 (+ k m) ?x71 ?x68 ?x68))))
 (let ((?x107 (+ (- ?x103 (* ?x70 (+ k m) (+ k m) ?x71 ?x68 ?x68)) (* ?x70 ?x70 (+ k m) (+ k m)))))
 (let ((?x111 (+ (- ?x107 (* ?x70 ?x70 (+ k m) (+ k m) (+ k m))) (* 2 ?x70 ?x71 ?x68 ?x68))))
 (let (($x67 (= (+ (- (+ 1 (* 3 n n)) k) (* 3 n)) 0)))
 (let ((?x59 (* 2 n)))
 (let (($x61 (= (+ (- (+ (- 1 (* 3 c)) (* k n)) k) ?x59) 0)))
 (let ((?x49 (* k k)))
 (let ((?x48 (* 9 n)))
 (let ((?x44 (* 5 k)))
 (let ((?x47 (- (- (- (* 4 1) (* 18 c)) (* 9 c n)) ?x44)))
 (and (= (- (+ (* (- 6) 1) m) (* 6 n)) 0) (= (+ ?x47 ?x48 ?x49) 0) $x61 $x67 (or (not (= (- ?x111 (* ?x70 (+ k m) ?x68 ?x68)) 0))))))))))))))))))))))) :qid k!34))
 ))
 (let ((?x2252 (lambda ((c Int) (k Int) (m Int) (n Int) )(let ((?x930 (* (- 1) (* (+ 1 n) (+ 1 n) (+ k m) (+ c k)))))
 (let ((?x985 (* 2 (* (+ 1 n) (+ 1 n) (+ 6 m) (+ c k)))))
 (let ((?x70 (+ c k)))
 (let ((?x74 (+ k m)))
 (let ((?x1636 (* (- 1) (* (+ 1 n) (+ 1 n) (+ 6 m) ?x74 ?x74 ?x70))))
 (let ((?x2880 (* 2 (* (+ 1 n) (+ 1 n) (+ 6 m) ?x74 ?x70))))
 (let ((?x373 (+ 6 m)))
 (let ((?x333 (+ 1 n)))
 (let ((?x2864 (* 2 (* ?x333 ?x333 ?x333 ?x373 ?x74 ?x70))))
 (let ((?x2853 (* ?x333 ?x333 ?x333 ?x373 ?x74 ?x74 ?x70)))
 (let ((?x2263 (* (- 3) (* ?x333 ?x333 ?x373 ?x74 ?x70 ?x70))))
 (let ((?x2040 (* ?x333 ?x74 ?x74 ?x74 ?x70 ?x70)))
 (let ((?x934 (+ (* ?x333 ?x333 ?x333) (* ?x333 ?x373 ?x70) (* 2 (* ?x333 ?x333 ?x333 ?x333)) (* 2 (* ?x333 ?x74 ?x74 ?x70 ?x70)) (* (- 3) (* ?x333 ?x373 ?x70 ?x70)) ?x2040 (* (- 1) (* ?x333 ?x373 ?x74 ?x70)) (* ?x333 ?x74 ?x70) (* (- 1) (* ?x333 ?x333 ?x333 ?x74)) (* (- 1) (* ?x333 ?x70)) (* ?x333 ?x333 ?x333 ?x333 ?x74) (* (- 3) (* ?x333 ?x333 ?x333 ?x70)) ?x2263 (* (- 2) (* ?x333 ?x333 ?x70)) (* (- 3) (* ?x74 ?x74 ?x70 ?x70 ?x70)) ?x2853 ?x2864 (* 3 (* ?x333 ?x70 ?x70)) ?x2880 ?x1636 (* ?x74 ?x74 ?x70 ?x70) (* (- 1) (* ?x74 ?x74 ?x74 ?x70 ?x70)) ?x985 ?x930)))
 (let (($x2028 (not (= ?x934 0))))
 (let (($x2704 (= (+ (* 3 (* n n)) (* (- 1) k) (* 3 n)) (- 1))))
 (let (($x2552 (= (+ (* (- 3) c) (* n k) (* (- 1) k) (* 2 n)) (- 1))))
 (let ((?x49 (* k k)))
 (let ((?x48 (* 9 n)))
 (let ((?x141 (+ (* (- 18) c) (* (- 9) (* n c)) (* (- 5) k) ?x48 ?x49)))
 (let (($x151 (= (+ m (* (- 6) n)) 6)))
 (let (($x2826 (and $x151 (= ?x141 (- 4)) $x2552 $x2704 $x2028)))
 (let ((?x68 (+ n 1)))
 (let ((?x71 (+ m 6)))
 (let ((?x76 (+ (* ?x68 ?x68 ?x68) (* ?x70 ?x71 ?x68) (* 2 ?x68 ?x68 ?x68 ?x68) (* 2 ?x70 ?x70 ?x74 ?x74 ?x68))))
 (let ((?x80 (+ (- ?x76 (* 3 ?x70 ?x70 ?x71 ?x68)) (* ?x70 ?x70 ?x74 ?x74 ?x74 ?x68))))
 (let ((?x87 (- (+ (- ?x80 (* ?x70 ?x74 ?x71 ?x68)) (* ?x70 ?x74 ?x68)) (* ?x74 ?x68 ?x68 ?x68))))
 (let ((?x95 (- (+ (- ?x87 (* ?x70 ?x68)) (* ?x74 ?x68 ?x68 ?x68 ?x68)) (* 3 ?x70 ?x68 ?x68 ?x68))))
 (let ((?x97 (- (- ?x95 (* 3 ?x70 ?x70 ?x74 ?x71 ?x68 ?x68)) (* 2 ?x70 ?x68 ?x68))))
 (let ((?x103 (+ (- ?x97 (* 3 ?x70 ?x70 ?x70 ?x74 ?x74)) (* ?x70 ?x74 ?x74 ?x71 ?x68 ?x68 ?x68) (* 2 ?x70 ?x74 ?x71 ?x68 ?x68 ?x68) (* 3 ?x70 ?x70 ?x68) (* 2 ?x70 ?x74 ?x71 ?x68 ?x68))))
 (let ((?x107 (+ (- ?x103 (* ?x70 ?x74 ?x74 ?x71 ?x68 ?x68)) (* ?x70 ?x70 ?x74 ?x74))))
 (let ((?x111 (+ (- ?x107 (* ?x70 ?x70 ?x74 ?x74 ?x74)) (* 2 ?x70 ?x71 ?x68 ?x68))))
 (let (($x67 (= (+ (- (+ 1 (* 3 n n)) k) (* 3 n)) 0)))
 (let ((?x59 (* 2 n)))
 (let (($x61 (= (+ (- (+ (- 1 (* 3 c)) (* k n)) k) ?x59) 0)))
 (let ((?x44 (* 5 k)))
 (let ((?x47 (- (- (- (* 4 1) (* 18 c)) (* 9 c n)) ?x44)))
 (let (($x117 (and (= (- (+ (* (- 6) 1) m) (* 6 n)) 0) (= (+ ?x47 ?x48 ?x49) 0) $x61 $x67 (or (not (= (- ?x111 (* ?x70 ?x74 ?x68 ?x68)) 0))))))
 (rewrite (= $x117 $x2826))))))))))))))))))))))))))))))))))))))))
 ))
 (let ((@x119 (asserted $x118)))
 (let ((@x982 (mp (mp @x119 (quant-intro (proof-bind ?x2252) (= $x118 $x2030)) $x2030) (rewrite (= $x2030 $x2030)) $x2030)))
 (let ((@x452 (mp (mp @x982 (quant-intro (proof-bind ?x1002) (= $x2030 $x1000)) $x1000) (quant-intro (proof-bind ?x991) (= $x1000 $x524)) $x524)))
 (let ((@x2300 (mp (mp~ @x452 (sk (~ $x524 $x2192)) $x2192) (rewrite (= $x2192 $x1569)) $x1569)))
 (let ((@x2296 (and-elim @x2300 $x2248)))
 (let ((@x1998 (unit-resolution ((_ th-lemma arith triangle-eq) (or (not $x2248) $x1198)) @x2296 $x1198)))
 (let (($x1552 (>= ?x2056 1)))
 (let ((@x1317 (unit-resolution ((_ th-lemma arith triangle-eq) (or (not $x2248) $x1552)) @x2296 $x1552)))
 (let (($x297 (<= ?x2001 4)))
 (let ((@x2294 (and-elim @x2300 $x2292)))
 (let ((@x1554 (unit-resolution ((_ th-lemma arith triangle-eq) (or (not $x2292) $x297)) @x2294 $x297)))
 (let (($x2689 (>= ?x2001 4)))
 (let ((@x458 (unit-resolution ((_ th-lemma arith triangle-eq) (or (not $x2292) $x2689)) @x2294 $x2689)))
 (let (($x1594 (<= ?x951 1)))
 (let ((@x2019 (and-elim @x2300 $x955)))
 (let ((@x1593 (unit-resolution ((_ th-lemma arith triangle-eq) (or (not $x955) $x1594)) @x2019 $x1594)))
 (let (($x2259 (>= ?x951 1)))
 (let ((@x1600 (unit-resolution ((_ th-lemma arith triangle-eq) (or (not $x955) $x2259)) @x2019 $x2259)))
 (let (($x300 (<= ?x1543 6)))
 (let ((@x1664 (and-elim @x2300 $x1539)))
 (let ((@x641 (unit-resolution ((_ th-lemma arith triangle-eq) (or (not $x1539) $x300)) @x1664 $x300)))
 (let (($x1254 (>= ?x1543 6)))
 (let ((@x655 (unit-resolution ((_ th-lemma arith triangle-eq) (or (not $x1539) $x1254)) @x1664 $x1254)))
 (let (($x1608 (not (<= ?x2145 (- 3)))))
 (let (($x958 (>= ?x2145 (- 3))))
 (let ((@x1550 ((_ th-lemma arith) (hypothesis (not $x958)) @x655 @x641 @x1600 @x1593 @x1600 @x1593 @x1317 @x1998 @x1600 @x1593 @x458 @x1554 @x1600 @x1593 @x655 @x641 @x655 @x641 @x1600 @x1593 @x1600 @x1593 @x458 @x1554 @x1317 @x1998 false)))
 (let ((@x621 (unit-resolution ((_ th-lemma arith triangle-eq) (or $x1467 $x1608 (not $x958))) (and-elim @x2300 $x2250) (or $x1608 (not $x958)))))
 ((_ th-lemma arith) (unit-resolution @x621 (lemma @x1550 $x958) $x1608) @x655 @x641 @x1600 @x1593 @x1600 @x1593 @x1317 @x1998 @x1600 @x1593 @x458 @x1554 @x1600 @x1593 @x655 @x641 @x655 @x641 @x1600 @x1593 @x1600 @x1593 @x458 @x1554 @x1317 @x1998 false)))))))))))))))))))))))))))))))))))))))))))))))))))))))))))))))))))))))))))))))))))))))))))))))))))))))))))

(:added-eqs                 4
 :arith-assert-diseq        1
 :arith-assert-lower        24
 :arith-assert-upper        83
 :arith-branch-var          2
 :arith-conflicts           2
 :arith-eq-adapter          5
 :arith-gcd-tests           8
 :arith-grobner             2
 :arith-ineq-splits         2
 :arith-max-min             597
 :arith-nonlinear-bounds    18
 :arith-nonlinear-horner    18
 :arith-num-rows            9
 :arith-patches             4
 :arith-pivots              9
 :arith-row-summations      11
 :arith-tableau-max-columns 121
 :arith-tableau-max-rows    9
 :conflicts                 2
 :decisions                 72
 :del-clause                16
 :final-checks              8
 :max-memory                4.17
 :memory                    3.48
 :mk-bool-var               92
 :mk-clause                 16
 :num-allocs                1902353
 :num-checks                1
 :propagations              10
 :rlimit-count              21146
 :time                      0.02
 :total-time                0.03)
